p cnf 16 37
-9 1 0
-9 -2 0
-9 3 0
-9 -4 0
-1 9 0
-2 0
-3 9 0
-4 0
-9 -10 0
9 10 0
-10 0
-5 0
-6 0
-7 0
-8 0
-11 -12 0
11 12 0
-13 1 0
-13 -2 0
-14 5 0
-14 -6 0
-1 13 0
-2 0
-5 14 0
-6 0
-13 -14 0
13 14 0
-15 3 0
-15 -4 0
-16 7 0
-16 -8 0
-3 15 0
-4 0
-7 16 0
-8 0
-15 -16 0
15 16 0
